NAME : traveling-santa-2018-prime-paths.29990.tour
COMMENT : Length = 29990
COMMENT : Found by LKH [Keld Helsgaun] Sun Jun 12 19:59:55 2022
TYPE : TOUR
DIMENSION : 100
TOUR_SECTION
1
6
8
15
53
25
18
22
2
28
36
97
42
11
80
71
70
74
59
10
56
89
46
57
65
47
93
99
67
63
31
100
95
54
90
77
64
24
83
32
40
85
19
3
29
21
33
9
60
66
78
58
34
98
96
16
12
87
76
55
49
68
7
79
50
75
26
94
61
27
91
92
84
81
39
72
45
41
82
44
14
48
20
5
35
37
73
51
86
30
4
62
52
23
69
88
17
38
43
13
-1
EOF
